NAME 
ROWS
 N  OBJ
 L  R0      
 L  R1      
 L  R2      
 L  R3      
 L  R4      
 L  R5      
 L  R6      
 L  R7      
 L  R8      
 L  R9      
COLUMNS
    MARKER    'MARKER'                 'INTORG'
    x[0]      R0        3
    x[0]      R1        -8
    x[0]      R2        8
    x[0]      R4        -2
    x[0]      R6        1
    x[1]      OBJ       -6
    x[1]      R0        5
    x[1]      R1        -8
    x[1]      R2        9
    x[1]      R3        -7
    x[1]      R4        -10
    x[1]      R5        -1
    x[1]      R6        -1
    x[1]      R8        1
    x[2]      OBJ       -7
    x[2]      R1        9
    x[2]      R3        4
    x[2]      R4        3
    x[2]      R7        1
    x[2]      R8        1
    x[3]      OBJ       -5
    x[3]      R0        7
    x[3]      R1        3
    x[3]      R2        1
    x[3]      R3        10
    x[3]      R4        8
    x[3]      R7        1
    x[4]      OBJ       8
    x[4]      R0        7
    x[4]      R1        -5
    x[4]      R2        10
    x[4]      R3        1
    x[4]      R4        -4
    x[4]      R5        -1
    x[4]      R7        1
    x[4]      R8        1
    x[4]      R9        -1
    x[5]      OBJ       -4
    x[5]      R0        4
    x[5]      R1        -6
    x[5]      R2        -1
    x[5]      R3        -1
    x[5]      R4        10
    x[5]      R8        1
    x[6]      OBJ       3
    x[6]      R0        -3
    x[6]      R1        1
    x[6]      R2        -3
    x[6]      R4        1
    x[6]      R6        1
    x[6]      R9        -1
    x[7]      OBJ       4
    x[7]      R0        7
    x[7]      R1        1
    x[7]      R2        -4
    x[7]      R3        -8
    x[7]      R4        10
    x[7]      R6        1
    x[7]      R7        1
    x[7]      R8        1
    x[8]      OBJ       4
    x[8]      R0        8
    x[8]      R1        2
    x[8]      R2        -7
    x[8]      R3        10
    x[8]      R4        9
    x[8]      R5        -1
    x[8]      R6        -1
    x[8]      R7        -1
    x[8]      R8        -1
    x[8]      R9        1
    x[9]      OBJ       -1
    x[9]      R0        -10
    x[9]      R1        -10
    x[9]      R2        8
    x[9]      R3        1
    x[9]      R4        2
    x[9]      R5        1
    x[9]      R7        1
    x[9]      R8        1
    y[0]      OBJ       -4
    y[0]      R0        -3
    y[0]      R1        8
    y[0]      R2        2
    y[0]      R3        6
    y[0]      R4        -6
    y[0]      R5        83
    y[0]      R6        92
    y[0]      R7        -50
    y[0]      R8        -83
    y[0]      R9        -76
    y[1]      OBJ       -10
    y[1]      R0        10
    y[1]      R1        -2
    y[1]      R2        -1
    y[1]      R3        3
    y[1]      R4        3
    y[1]      R5        56
    y[1]      R6        -62
    y[1]      R7        -80
    y[1]      R8        49
    y[1]      R9        -53
    y[2]      OBJ       -6
    y[2]      R0        -7
    y[2]      R1        9
    y[2]      R4        -2
    y[2]      R5        73
    y[2]      R6        46
    y[2]      R7        -74
    y[2]      R8        6
    y[2]      R9        96
    y[3]      OBJ       -3
    y[3]      R0        1
    y[3]      R2        -9
    y[3]      R3        -7
    y[3]      R4        -7
    y[3]      R5        -8
    y[3]      R6        -59
    y[3]      R7        93
    y[3]      R8        20
    y[3]      R9        71
    y[4]      OBJ       -7
    y[4]      R0        -8
    y[4]      R1        9
    y[4]      R3        1
    y[4]      R4        -5
    y[4]      R5        84
    y[4]      R6        -5
    y[4]      R7        1
    y[4]      R8        54
    y[4]      R9        21
    y[5]      OBJ       -3
    y[5]      R0        -2
    y[5]      R1        1
    y[5]      R2        -4
    y[5]      R4        -8
    y[5]      R5        22
    y[5]      R6        -43
    y[5]      R7        -82
    y[5]      R8        60
    y[5]      R9        41
    y[6]      OBJ       -4
    y[6]      R0        -5
    y[6]      R1        8
    y[6]      R2        -1
    y[6]      R3        -8
    y[6]      R4        -10
    y[6]      R5        -49
    y[6]      R6        76
    y[6]      R7        88
    y[6]      R8        -92
    y[6]      R9        -94
    y[7]      OBJ       -5
    y[7]      R0        8
    y[7]      R1        9
    y[7]      R2        -6
    y[7]      R3        2
    y[7]      R4        -3
    y[7]      R5        -96
    y[7]      R6        70
    y[7]      R7        -41
    y[7]      R8        36
    y[7]      R9        -98
    y[8]      OBJ       -10
    y[8]      R0        10
    y[8]      R1        -2
    y[8]      R2        -2
    y[8]      R4        -2
    y[8]      R5        -69
    y[8]      R6        13
    y[8]      R7        17
    y[8]      R8        48
    y[8]      R9        -33
    y[9]      OBJ       -8
    y[9]      R0        -1
    y[9]      R1        -10
    y[9]      R2        8
    y[9]      R3        8
    y[9]      R4        -9
    y[9]      R5        -24
    y[9]      R6        80
    y[9]      R7        13
    y[9]      R8        -32
    y[9]      R9        -7
    MARKER    'MARKER'                 'INTEND'
RHS
    RHS1      R0        7.75
    RHS1      R1        2.25
    RHS1      R2        2
    RHS1      R3        3.75
    RHS1      R4        -5.5
    RHS1      R5        18
    RHS1      R6        52
    RHS1      R7        -28
    RHS1      R8        18
    RHS1      R9        -33
BOUNDS
 BV BND1      x[0]    
 BV BND1      x[1]    
 BV BND1      x[2]    
 BV BND1      x[3]    
 BV BND1      x[4]    
 BV BND1      x[5]    
 BV BND1      x[6]    
 BV BND1      x[7]    
 BV BND1      x[8]    
 BV BND1      x[9]    
 BV BND1      y[0]    
 BV BND1      y[1]    
 BV BND1      y[2]    
 BV BND1      y[3]    
 BV BND1      y[4]    
 BV BND1      y[5]    
 BV BND1      y[6]    
 BV BND1      y[7]    
 BV BND1      y[8]    
 BV BND1      y[9]    
ENDATA
